(set-logic QF_S)
(declare-fun var0 () String)
(declare-fun var1 () String)
(declare-fun var2 () String)
(declare-fun var3 () String)
(declare-fun var4 () String)
(declare-fun var5 () String)
(declare-fun var6 () String)
(declare-fun var7 () String)
(declare-fun var8 () String)
(declare-fun var9 () String)
(declare-fun var10 () String)
(declare-fun var11 () String)
(declare-fun var12 () String)
(declare-fun var13 () String)
(declare-fun var14 () String)
(declare-fun var15 () String)
(declare-fun var16 () String)
(declare-fun var17 () String)
(declare-fun var18 () String)
(declare-fun var19 () String)
(declare-fun var20 () String)
(declare-fun var21 () String)
(declare-fun var22 () String)
(declare-fun var23 () String)
(declare-fun var24 () String)
(declare-fun var25 () String)
(declare-fun var26 () String)
(declare-fun var27 () String)
(declare-fun var28 () String)
(declare-fun var29 () String)
(declare-fun var30 () String)
(declare-fun var31 () String)
(declare-fun var32 () String)
(declare-fun var33 () String)
(declare-fun var34 () String)
(declare-fun var35 () String)
(declare-fun var36 () String)
(declare-fun var37 () String)
(declare-fun var38 () String)
(declare-fun var39 () String)
(declare-fun var40 () String)
(declare-fun var41 () String)
(declare-fun var42 () String)
(declare-fun var43 () String)
(declare-fun var44 () String)
(declare-fun var45 () String)
(declare-fun var46 () String)
(declare-fun var47 () String)
(declare-fun var48 () String)
(declare-fun var49 () String)
(declare-fun var50 () String)
(declare-fun var51 () String)
(declare-fun var52 () String)
(declare-fun var53 () String)
(declare-fun var54 () String)
(declare-fun var55 () String)
(declare-fun var56 () String)
(declare-fun var57 () String)
(declare-fun var58 () String)
(declare-fun var59 () String)
(declare-fun var60 () String)
(assert (= var0 (str.++ var1 var2)))
(assert (= var2 (str.++ var3 var4)))
(assert (= var4 (str.++ var5 var6)))
(assert (= var6 (str.++ var7 var8)))
(assert (= var8 (str.++ var9 var10)))
(assert (= var10 (str.++ var11 var12)))
(assert (= var12 (str.++ var13 var14)))
(assert (= var14 (str.++ var15 var16)))
(assert (= var16 (str.++ var17 var18)))
(assert (= var18 (str.++ var19 var20)))
(assert (= var20 (str.++ var21 var22)))
(assert (= var22 (str.++ var23 var24)))
(assert (= var24 (str.++ var25 var26)))
(assert (= var26 (str.++ var27 var28)))
(assert (= var28 (str.++ var29 var30)))
(assert (= var30 (str.++ var31 var32)))
(assert (= var32 (str.++ var33 var34)))
(assert (= var34 (str.++ var35 var36)))
(assert (= var36 (str.++ var37 var38)))
(assert (= var38 (str.++ var39 var40)))
(assert (= var40 (str.++ var41 var42)))
(assert (= var42 (str.++ var43 var44)))
(assert (= var44 (str.++ var45 var46)))
(assert (= var46 (str.++ var47 var48)))
(assert (= var48 (str.++ var49 var50)))
(assert (= var50 (str.++ var51 var52)))
(assert (= var52 (str.++ var53 var54)))
(assert (= var54 (str.++ var55 var56)))
(assert (= var56 (str.++ var57 var58)))
(assert (= var58 (str.++ var59 var60)))
(assert (= var0 "solution"))
(assert (= "H" (str.at var46 828)))
(assert (= "/" (str.at var32 580)))
(assert (= "Z" (str.at var31 782)))
(assert (= "v" (str.at var42 544)))
(assert (= ":" (str.at var31 12)))
(assert (= "k" (str.at var23 27)))
(assert (= "W" (str.at var39 196)))
(assert (= "Y" (str.at var24 119)))
(assert (= "D" (str.at var5 728)))
(assert (= "'" (str.at var27 111)))
(assert (= "(" (str.at var14 773)))
(assert (= "@" (str.at var4 895)))
(assert (= "i" (str.at var29 924)))
(assert (= ">" (str.at var47 952)))
(assert (= "!" (str.at var13 521)))
(assert (= "z" (str.at var50 993)))
(assert (= "q" (str.at var30 818)))
(assert (= "{" (str.at var50 776)))
(assert (= "g" (str.at var27 767)))
(assert (= "n" (str.at var1 597)))
(assert (= "m" (str.at var11 522)))
(assert (= "M" (str.at var17 433)))
(assert (= "q" (str.at var7 650)))
(assert (= "?" (str.at var21 596)))
(assert (= "!" (str.at var4 290)))
(assert (= "j" (str.at var55 124)))
(assert (= "!" (str.at var38 199)))
(assert (= "_" (str.at var4 70)))
(assert (= "p" (str.at var7 605)))
(assert (= "m" (str.at var6 350)))
(assert (= "z" (str.at var51 533)))
(assert (= "<" (str.at var35 350)))
(assert (= "=" (str.at var6 944)))
(assert (= "[" (str.at var60 239)))
(assert (= "Q" (str.at var31 300)))
(assert (= "n" (str.at var51 833)))
(assert (= "Y" (str.at var37 826)))
(assert (= "9" (str.at var4 371)))
(assert (= "D" (str.at var40 688)))
(assert (= "w" (str.at var45 202)))
(assert (= "I" (str.at var48 274)))
(assert (= ">" (str.at var10 177)))
(assert (= "E" (str.at var57 922)))
(assert (= "k" (str.at var27 402)))
(assert (= "f" (str.at var54 393)))
(assert (= "o" (str.at var41 84)))
(assert (= "8" (str.at var15 208)))
(assert (= "/" (str.at var52 436)))
(assert (= "q" (str.at var17 974)))
(assert (= "A" (str.at var51 202)))
(assert (= "t" (str.at var59 706)))
(assert (= "A" (str.at var26 74)))
(assert (= "-" (str.at var2 574)))
(assert (= "q" (str.at var47 502)))
(assert (= "j" (str.at var39 355)))
(assert (= "\\" (str.at var28 576)))
(assert (= "E" (str.at var54 172)))
(assert (= "4" (str.at var27 133)))
(assert (= "9" (str.at var47 310)))
(assert (= "M" (str.at var4 341)))
(assert (= "~" (str.at var47 634)))
(assert (= "r" (str.at var58 782)))
(assert (= "p" (str.at var12 732)))
(assert (= "Q" (str.at var40 936)))
(assert (= "k" (str.at var7 522)))
(assert (= "&" (str.at var43 36)))
(assert (= "#" (str.at var3 418)))
(assert (= "M" (str.at var19 728)))
(assert (= ";" (str.at var10 787)))
(assert (= "g" (str.at var50 872)))
(assert (= "B" (str.at var19 283)))
(assert (= "$" (str.at var47 965)))
(assert (= "z" (str.at var6 302)))
(assert (= "g" (str.at var29 724)))
(assert (= "j" (str.at var27 469)))
(assert (= "M" (str.at var59 738)))
(assert (= ")" (str.at var20 37)))
(assert (= "." (str.at var60 595)))
(assert (= "B" (str.at var46 405)))
(assert (= "j" (str.at var21 732)))
(assert (= "`" (str.at var4 736)))
(assert (= "`" (str.at var55 759)))
(assert (= "Z" (str.at var31 915)))
(assert (= "|" (str.at var37 504)))
(assert (= "P" (str.at var4 141)))
(assert (= "N" (str.at var58 631)))
(assert (= "U" (str.at var53 374)))
(assert (= "L" (str.at var48 387)))
(assert (= "b" (str.at var29 485)))
(assert (= "a" (str.at var32 707)))
(assert (= "8" (str.at var53 556)))
(assert (= "b" (str.at var3 48)))
(assert (= "&" (str.at var15 428)))
(assert (= "Z" (str.at var3 816)))
(assert (= ">" (str.at var2 416)))
(assert (= "`" (str.at var13 396)))
(assert (= "&" (str.at var28 737)))
(assert (= "p" (str.at var9 879)))
(assert (= "X" (str.at var30 945)))
(assert (= "E" (str.at var3 246)))
(assert (= ";" (str.at var5 416)))
(assert (= "G" (str.at var15 994)))
(assert (= "I" (str.at var39 226)))
(assert (= "x" (str.at var49 387)))
(assert (= """" (str.at var57 5)))
(assert (= "y" (str.at var26 25)))
(assert (= "W" (str.at var28 630)))
(assert (= "%" (str.at var59 184)))
(assert (= "L" (str.at var51 704)))
(assert (= "|" (str.at var22 723)))
(assert (= "B" (str.at var18 549)))
(assert (= "8" (str.at var0 459)))
(assert (= "H" (str.at var52 279)))
(assert (= "n" (str.at var16 474)))
(assert (= "5" (str.at var56 971)))
(assert (= "L" (str.at var60 650)))
(assert (= "t" (str.at var38 172)))
(assert (= "R" (str.at var3 445)))
(assert (= "b" (str.at var9 475)))
(assert (= "9" (str.at var55 67)))
(assert (= ")" (str.at var42 609)))
(assert (= "w" (str.at var2 85)))
(assert (= "a" (str.at var57 917)))
(assert (= "|" (str.at var14 172)))
(assert (= "." (str.at var1 173)))
(assert (= "A" (str.at var47 141)))
(assert (= ":" (str.at var41 717)))
(assert (= "l" (str.at var49 24)))
(assert (= "9" (str.at var0 921)))
(assert (= "`" (str.at var32 59)))
(assert (= "N" (str.at var44 878)))
(assert (= "P" (str.at var56 548)))
(assert (= "u" (str.at var43 581)))
(assert (= "S" (str.at var27 796)))
(assert (= "J" (str.at var57 655)))
(assert (= "!" (str.at var6 647)))
(assert (= "b" (str.at var3 457)))
(assert (= "i" (str.at var54 404)))
(assert (= "~" (str.at var2 623)))
(assert (= "t" (str.at var51 998)))
(assert (= "V" (str.at var4 347)))
(assert (= "A" (str.at var26 841)))
(assert (= "0" (str.at var22 566)))
(assert (= "E" (str.at var18 585)))
(assert (= "." (str.at var43 870)))
(assert (= "g" (str.at var41 815)))
(assert (= ":" (str.at var51 839)))
(assert (= "S" (str.at var43 164)))
(assert (= "H" (str.at var58 657)))
(assert (= ")" (str.at var3 402)))
(assert (= "0" (str.at var38 406)))
(assert (= "-" (str.at var24 697)))
(assert (= "/" (str.at var45 766)))
(assert (= "'" (str.at var12 474)))
(assert (= ")" (str.at var59 648)))
(assert (= ")" (str.at var13 552)))
(assert (= "9" (str.at var13 465)))
(assert (= "P" (str.at var13 248)))
(assert (= "A" (str.at var47 570)))
(assert (= "l" (str.at var15 715)))
(assert (= "5" (str.at var2 336)))
(assert (= "]" (str.at var32 705)))
(assert (= "v" (str.at var43 821)))
(assert (= "Z" (str.at var27 787)))
(assert (= "a" (str.at var29 468)))
(assert (= "z" (str.at var47 793)))
(assert (= "&" (str.at var21 86)))
(assert (= "5" (str.at var15 648)))
(assert (= "E" (str.at var23 115)))
(assert (= "A" (str.at var22 322)))
(assert (= "?" (str.at var55 223)))
(assert (= "^" (str.at var48 302)))
(assert (= "y" (str.at var50 858)))
(assert (= "*" (str.at var46 169)))
(assert (= "{" (str.at var42 914)))
(assert (= "W" (str.at var38 338)))
(assert (= "K" (str.at var19 231)))
(assert (= "E" (str.at var36 391)))
(assert (= "k" (str.at var4 113)))
(assert (= "s" (str.at var24 624)))
(assert (= "G" (str.at var43 354)))
(assert (= "@" (str.at var11 517)))
(assert (= "^" (str.at var51 408)))
(assert (= "5" (str.at var43 314)))
(assert (= "2" (str.at var22 27)))
(assert (= "0" (str.at var40 562)))
(assert (= "C" (str.at var53 864)))
(assert (= "}" (str.at var52 299)))
(assert (= "(" (str.at var22 589)))
(assert (= "$" (str.at var33 860)))
(assert (= "6" (str.at var46 391)))
(assert (= "O" (str.at var49 804)))
(assert (= "m" (str.at var50 945)))
(assert (= "(" (str.at var51 475)))
(assert (= "@" (str.at var6 599)))
(assert (= "!" (str.at var36 568)))
(assert (= """" (str.at var22 920)))
(assert (= "V" (str.at var31 983)))
(assert (= "Y" (str.at var20 266)))
(assert (= "a" (str.at var11 719)))
(assert (= "F" (str.at var5 386)))
(assert (= "F" (str.at var46 667)))
(assert (= "i" (str.at var53 153)))
(assert (= "d" (str.at var53 318)))
(assert (= "L" (str.at var17 880)))
(assert (= "7" (str.at var53 789)))
(assert (= "T" (str.at var25 545)))
(assert (= "p" (str.at var53 163)))
(assert (= "(" (str.at var15 122)))
(assert (= "|" (str.at var30 425)))
(assert (= "4" (str.at var47 455)))
(assert (= "-" (str.at var54 620)))
(assert (= "_" (str.at var31 81)))
(assert (= "N" (str.at var9 449)))
(assert (= "3" (str.at var9 571)))
(assert (= "8" (str.at var2 123)))
(assert (= "|" (str.at var8 826)))
(assert (= """" (str.at var7 112)))
(assert (= "Y" (str.at var32 396)))
(assert (= "M" (str.at var13 363)))
(assert (= "?" (str.at var40 722)))
(assert (= "t" (str.at var25 298)))
(assert (= "Y" (str.at var53 502)))
(assert (= "g" (str.at var28 834)))
(assert (= "$" (str.at var11 918)))
(assert (= "r" (str.at var20 395)))
(assert (= "," (str.at var21 17)))
(assert (= "J" (str.at var57 809)))
(assert (= "U" (str.at var18 301)))
(assert (= "m" (str.at var45 178)))
(assert (= "u" (str.at var47 476)))
(assert (= "'" (str.at var6 968)))
(assert (= "g" (str.at var27 531)))
(assert (= "(" (str.at var30 141)))
(assert (= "i" (str.at var50 670)))
(assert (= "W" (str.at var29 235)))
(assert (= "?" (str.at var1 431)))
(assert (= "}" (str.at var14 534)))
(assert (= "3" (str.at var25 991)))
(assert (= "_" (str.at var16 150)))
(assert (= ">" (str.at var5 135)))
(assert (= "{" (str.at var16 922)))
(assert (= "O" (str.at var5 213)))
(assert (= "M" (str.at var22 954)))
(assert (= "6" (str.at var26 992)))
(assert (= "+" (str.at var8 744)))
(assert (= "z" (str.at var18 173)))
(assert (= "<" (str.at var37 39)))
(assert (= "Y" (str.at var13 733)))
(assert (= "=" (str.at var0 340)))
(assert (= "2" (str.at var9 935)))
(assert (= "6" (str.at var6 163)))
(assert (= "D" (str.at var2 242)))
(assert (= "Q" (str.at var9 394)))
(assert (= "$" (str.at var56 322)))
(assert (= "n" (str.at var13 75)))
(assert (= ";" (str.at var1 714)))
(assert (= ";" (str.at var57 355)))
(assert (= "l" (str.at var17 849)))
(assert (= "!" (str.at var52 417)))
(assert (= "o" (str.at var28 14)))
(assert (= "j" (str.at var1 430)))
(assert (= "a" (str.at var56 899)))
(assert (= "T" (str.at var19 100)))
(assert (= "E" (str.at var22 529)))
(assert (= "G" (str.at var38 577)))
(assert (= "+" (str.at var28 966)))
(assert (= "F" (str.at var36 948)))
(assert (= ";" (str.at var33 626)))
(assert (= "}" (str.at var54 390)))
(assert (= "?" (str.at var26 932)))
(assert (= "F" (str.at var45 692)))
(assert (= "F" (str.at var42 415)))
(assert (= "}" (str.at var41 180)))
(assert (= ":" (str.at var24 343)))
(assert (= ")" (str.at var11 176)))
(assert (= "i" (str.at var1 929)))
(assert (= "5" (str.at var37 149)))
(assert (= """" (str.at var34 539)))
(assert (= "J" (str.at var56 791)))
(assert (= "<" (str.at var39 227)))
(assert (= "[" (str.at var16 289)))
(assert (= "6" (str.at var25 867)))
(assert (= "\\" (str.at var22 257)))
(assert (= "P" (str.at var51 79)))
(assert (= "<" (str.at var36 79)))
(assert (= "J" (str.at var24 424)))
(assert (= "z" (str.at var10 749)))
(assert (= "8" (str.at var12 21)))
(assert (= "T" (str.at var8 698)))
(assert (= "G" (str.at var35 375)))
(assert (= "O" (str.at var34 165)))
(assert (= "!" (str.at var10 178)))
(assert (= "\\" (str.at var22 189)))
(assert (= "A" (str.at var45 720)))
(assert (= "N" (str.at var39 992)))
(assert (= "," (str.at var30 234)))
(assert (= ")" (str.at var7 10)))
(assert (= "K" (str.at var28 198)))
(assert (= "I" (str.at var43 764)))
(assert (= "@" (str.at var1 531)))
(assert (= "I" (str.at var15 471)))
(assert (= "d" (str.at var52 247)))
(assert (= "l" (str.at var40 119)))
(assert (= "'" (str.at var15 271)))
(assert (= "2" (str.at var56 865)))
(assert (= "9" (str.at var36 283)))
(assert (= "9" (str.at var29 292)))
(assert (= "|" (str.at var9 27)))
(assert (= "N" (str.at var6 796)))
(assert (= "p" (str.at var19 257)))
(assert (= "w" (str.at var10 209)))
(assert (= "_" (str.at var18 459)))
(assert (= "z" (str.at var26 830)))
(assert (= "g" (str.at var1 516)))
(assert (= "d" (str.at var44 496)))
(assert (= "." (str.at var19 706)))
(assert (= "R" (str.at var26 434)))
(assert (= "x" (str.at var4 772)))
(assert (= "9" (str.at var54 31)))
(assert (= "Z" (str.at var33 806)))
(assert (= "i" (str.at var36 451)))
(assert (= "z" (str.at var53 877)))
(assert (= "G" (str.at var0 356)))
(assert (= "w" (str.at var23 634)))
(assert (= "a" (str.at var37 845)))
(assert (= "O" (str.at var17 750)))
(assert (= "@" (str.at var57 706)))
(assert (= "!" (str.at var11 269)))
(assert (= "%" (str.at var34 362)))
(assert (= "P" (str.at var7 714)))
(assert (= "1" (str.at var32 410)))
(assert (= "L" (str.at var57 528)))
(assert (= "~" (str.at var60 861)))
(assert (= "8" (str.at var42 755)))
(assert (= "b" (str.at var14 4)))
(assert (= "3" (str.at var25 204)))
(assert (= "5" (str.at var58 678)))
(assert (= "R" (str.at var5 366)))
(assert (= "y" (str.at var36 362)))
(assert (= "c" (str.at var43 143)))
(assert (= "T" (str.at var22 160)))
(assert (= "," (str.at var31 368)))
(assert (= "7" (str.at var10 980)))
(assert (= "n" (str.at var2 617)))
(assert (= "@" (str.at var29 161)))
(assert (= "." (str.at var21 524)))
(assert (= "!" (str.at var54 72)))
(assert (= "7" (str.at var13 670)))
(assert (= "{" (str.at var28 626)))
(assert (= "t" (str.at var3 57)))
(assert (= "`" (str.at var18 909)))
(assert (= "6" (str.at var42 571)))
(assert (= "F" (str.at var2 786)))
(assert (= "8" (str.at var47 731)))
(assert (= "h" (str.at var28 534)))
(assert (= "5" (str.at var40 202)))
(assert (= "X" (str.at var35 438)))
(assert (= "4" (str.at var20 949)))
(assert (= "*" (str.at var38 997)))
(assert (= "5" (str.at var12 185)))
(assert (= "h" (str.at var2 40)))
(assert (= "|" (str.at var44 860)))
(assert (= "z" (str.at var40 15)))
(assert (= "[" (str.at var48 956)))
(assert (= "5" (str.at var13 532)))
(assert (= "S" (str.at var30 339)))
(assert (= "f" (str.at var18 370)))
(assert (= "w" (str.at var46 750)))
(assert (= "&" (str.at var43 737)))
(assert (= "D" (str.at var53 634)))
(assert (= "V" (str.at var37 291)))
(assert (= "1" (str.at var56 909)))
(assert (= "V" (str.at var53 943)))
(assert (= "#" (str.at var15 0)))
(assert (= "i" (str.at var29 893)))
(assert (= "w" (str.at var58 111)))
(assert (= "p" (str.at var41 263)))
(assert (= "k" (str.at var9 401)))
(assert (= ")" (str.at var8 931)))
(assert (= "v" (str.at var42 567)))
(assert (= "K" (str.at var8 283)))
(assert (= "E" (str.at var7 365)))
(assert (= "H" (str.at var38 155)))
(assert (= "\\" (str.at var14 291)))
(assert (= "u" (str.at var17 365)))
(assert (= "H" (str.at var6 414)))
(assert (= "<" (str.at var14 411)))
(assert (= ")" (str.at var44 884)))
(assert (= "p" (str.at var33 874)))
(assert (= "&" (str.at var50 979)))
(assert (= "Q" (str.at var31 218)))
(assert (= "B" (str.at var0 174)))
(assert (= "{" (str.at var15 684)))
(assert (= "J" (str.at var36 192)))
(assert (= "o" (str.at var52 826)))
(assert (= "O" (str.at var40 455)))
(assert (= "," (str.at var20 95)))
(assert (= "l" (str.at var57 427)))
(assert (= "]" (str.at var40 335)))
(assert (= "'" (str.at var37 147)))
(assert (= "`" (str.at var41 607)))
(assert (= "v" (str.at var10 245)))
(assert (= "{" (str.at var4 5)))
(assert (= "Y" (str.at var38 874)))
(assert (= "d" (str.at var55 340)))
(assert (= "{" (str.at var28 785)))
(assert (= "~" (str.at var10 263)))
(assert (= "%" (str.at var36 118)))
(assert (= "T" (str.at var39 163)))
(assert (= "5" (str.at var20 810)))
(assert (= "S" (str.at var12 575)))
(assert (= "V" (str.at var48 834)))
(assert (= "}" (str.at var16 478)))
(assert (= "#" (str.at var25 753)))
(assert (= "S" (str.at var46 883)))
(assert (= "_" (str.at var15 415)))
(assert (= "8" (str.at var5 39)))
(assert (= "T" (str.at var18 539)))
(assert (= "O" (str.at var27 975)))
(assert (= "G" (str.at var40 62)))
(assert (= """" (str.at var18 671)))
(assert (= "'" (str.at var5 724)))
(assert (= "c" (str.at var9 86)))
(assert (= "M" (str.at var35 596)))
(assert (= "-" (str.at var40 516)))
(assert (= "v" (str.at var19 734)))
(assert (= "`" (str.at var39 69)))
(assert (= "j" (str.at var15 276)))
(assert (= "+" (str.at var56 620)))
(assert (= "=" (str.at var34 953)))
(assert (= "7" (str.at var19 752)))
(assert (= "1" (str.at var39 699)))
(assert (= "H" (str.at var55 54)))
(assert (= "a" (str.at var7 792)))
(assert (= "q" (str.at var46 918)))
(assert (= "b" (str.at var7 423)))
(assert (= "K" (str.at var57 351)))
(assert (= "J" (str.at var53 600)))
(assert (= "G" (str.at var56 337)))
(assert (= "L" (str.at var25 124)))
(assert (= "4" (str.at var40 381)))
(assert (= "?" (str.at var12 843)))
(assert (= "Q" (str.at var7 920)))
(assert (= "e" (str.at var39 842)))
(assert (= "x" (str.at var14 183)))
(assert (= "g" (str.at var18 62)))
(assert (= "y" (str.at var40 290)))
(assert (= "C" (str.at var47 939)))
(assert (= "D" (str.at var37 60)))
(assert (= "}" (str.at var47 12)))
(assert (= "=" (str.at var41 93)))
(assert (= "m" (str.at var15 571)))
(assert (= "G" (str.at var7 175)))
(assert (= "0" (str.at var28 511)))
(assert (= "6" (str.at var55 527)))
(assert (= "S" (str.at var11 444)))
(assert (= "," (str.at var41 427)))
(assert (= "=" (str.at var60 766)))
(assert (= "/" (str.at var19 853)))
(assert (= "o" (str.at var24 632)))
(assert (= "&" (str.at var58 54)))
(assert (= "Z" (str.at var44 950)))
(assert (= "&" (str.at var32 506)))
(assert (= "5" (str.at var36 412)))
(assert (= "v" (str.at var36 441)))
(assert (= "K" (str.at var28 280)))
(assert (= "Y" (str.at var30 217)))
(assert (= "." (str.at var60 478)))
(assert (= "g" (str.at var23 290)))
(assert (= "`" (str.at var46 16)))
(assert (= "{" (str.at var48 717)))
(assert (= "F" (str.at var30 479)))
(assert (= "Q" (str.at var14 518)))
(assert (= "d" (str.at var38 501)))
(assert (= "1" (str.at var57 249)))
(assert (= "\\" (str.at var56 748)))
(assert (= "X" (str.at var37 861)))
(assert (= "v" (str.at var25 412)))
(assert (= ":" (str.at var46 796)))
(assert (= "D" (str.at var20 34)))
(assert (= "," (str.at var15 288)))
(assert (= "S" (str.at var46 625)))
(assert (= ":" (str.at var34 505)))
(assert (= "M" (str.at var45 690)))
(assert (= "~" (str.at var9 794)))
(assert (= "h" (str.at var25 897)))
(assert (= "L" (str.at var60 682)))
(assert (= "I" (str.at var46 49)))
(assert (= "V" (str.at var26 402)))
(assert (= "y" (str.at var10 684)))
(assert (= "J" (str.at var17 979)))
(assert (= "%" (str.at var25 351)))
(assert (= "f" (str.at var32 214)))
(assert (= "P" (str.at var33 648)))
(assert (= "R" (str.at var51 868)))
(assert (= "^" (str.at var38 534)))
(assert (= "S" (str.at var30 812)))
(assert (= "N" (str.at var15 937)))
(assert (= "f" (str.at var37 429)))
(assert (= "5" (str.at var36 309)))
(assert (= "?" (str.at var47 314)))
(assert (= "C" (str.at var60 499)))
(assert (= "L" (str.at var24 118)))
(assert (= "k" (str.at var56 324)))
(assert (= "(" (str.at var60 700)))
(assert (= ">" (str.at var13 535)))
(assert (= "g" (str.at var16 27)))
(assert (= "7" (str.at var43 419)))
(assert (= "z" (str.at var10 268)))
(assert (= "@" (str.at var25 449)))
(assert (= "@" (str.at var24 901)))
(assert (= "r" (str.at var37 302)))
(assert (= "F" (str.at var54 787)))
(assert (= "," (str.at var9 737)))
(assert (= "/" (str.at var47 184)))
(assert (= "0" (str.at var37 605)))
(assert (= "&" (str.at var41 977)))
(assert (= "u" (str.at var23 572)))
(assert (= "[" (str.at var1 184)))
(assert (= "a" (str.at var41 675)))
(assert (= "F" (str.at var14 52)))
(assert (= "=" (str.at var46 285)))
(assert (= "_" (str.at var55 713)))
(assert (= "s" (str.at var4 467)))
(assert (= "?" (str.at var18 553)))
(assert (= "*" (str.at var12 51)))
(assert (= "_" (str.at var8 366)))
(assert (= "j" (str.at var40 536)))
(assert (= "8" (str.at var52 256)))
(assert (= "2" (str.at var15 798)))
(assert (= "v" (str.at var57 456)))
(assert (= "j" (str.at var46 642)))
(assert (= "%" (str.at var21 945)))
(assert (= "C" (str.at var25 403)))
(assert (= "f" (str.at var53 903)))
(assert (= "j" (str.at var12 373)))
(assert (= "t" (str.at var56 704)))
(assert (= "R" (str.at var59 377)))
(assert (= "r" (str.at var9 106)))
(assert (= "-" (str.at var19 49)))
(assert (= "e" (str.at var37 704)))
(assert (= "k" (str.at var22 893)))
(assert (= "M" (str.at var16 618)))
(assert (= "k" (str.at var0 848)))
(assert (= "2" (str.at var28 291)))
(assert (= "t" (str.at var10 621)))
(assert (= "h" (str.at var33 933)))
(assert (= "J" (str.at var22 95)))
(assert (= "}" (str.at var3 211)))
(assert (= "~" (str.at var54 95)))
(assert (= "(" (str.at var16 522)))
(assert (= "'" (str.at var10 631)))
(assert (= "^" (str.at var21 785)))
(assert (= "b" (str.at var47 168)))
(assert (= "}" (str.at var3 288)))
(assert (= "Y" (str.at var31 912)))
(assert (= "(" (str.at var20 230)))
(assert (= "J" (str.at var51 383)))
(assert (= ";" (str.at var37 390)))
(assert (= "x" (str.at var3 183)))
(assert (= "+" (str.at var39 209)))
(assert (= "M" (str.at var26 683)))
(assert (= "v" (str.at var53 82)))
(assert (= "z" (str.at var7 803)))
(assert (= "Z" (str.at var11 728)))
(assert (= "k" (str.at var29 116)))
(assert (= "," (str.at var29 688)))
(assert (= "j" (str.at var56 985)))
(assert (= "K" (str.at var56 582)))
(assert (= "r" (str.at var6 980)))
(assert (= "_" (str.at var46 63)))
(assert (= "i" (str.at var37 162)))
(assert (= "`" (str.at var14 571)))
(assert (= "~" (str.at var44 237)))
(assert (= "F" (str.at var27 467)))
(assert (= "g" (str.at var11 515)))
(assert (= "!" (str.at var54 763)))
(assert (= "2" (str.at var9 540)))
(assert (= ":" (str.at var0 864)))
(assert (= "s" (str.at var38 483)))
(assert (= "T" (str.at var17 938)))
(assert (= "," (str.at var50 30)))
(assert (= "p" (str.at var17 257)))
(assert (= "D" (str.at var14 888)))
(assert (= "_" (str.at var23 583)))
(assert (= "i" (str.at var4 762)))
(assert (= ":" (str.at var58 335)))
(assert (= ")" (str.at var2 24)))
(assert (= "1" (str.at var37 785)))
(assert (= "^" (str.at var44 220)))
(assert (= "x" (str.at var31 302)))
(assert (= "a" (str.at var34 74)))
(assert (= "s" (str.at var34 708)))
(assert (= ":" (str.at var31 49)))
(assert (= "b" (str.at var40 162)))
(assert (= "Q" (str.at var17 868)))
(assert (= "!" (str.at var0 416)))
(assert (= "7" (str.at var37 943)))
(assert (= "]" (str.at var38 864)))
(assert (= "`" (str.at var39 231)))
(assert (= "=" (str.at var31 248)))
(assert (= "y" (str.at var32 509)))
(assert (= "Z" (str.at var34 342)))
(assert (= "C" (str.at var60 66)))
(assert (= "<" (str.at var29 98)))
(assert (= "&" (str.at var42 70)))
(assert (= "m" (str.at var54 733)))
(assert (= "@" (str.at var3 52)))
(assert (= "5" (str.at var58 470)))
(assert (= "J" (str.at var58 250)))
(assert (= "n" (str.at var22 508)))
(assert (= "b" (str.at var42 234)))
(assert (= "#" (str.at var4 842)))
(assert (= "5" (str.at var47 96)))
(assert (= "$" (str.at var35 662)))
(assert (= "G" (str.at var26 321)))
(assert (= "x" (str.at var56 638)))
(assert (= "g" (str.at var58 925)))
(assert (= "f" (str.at var17 296)))
(assert (= "q" (str.at var42 152)))
(assert (= "o" (str.at var57 292)))
(assert (= "P" (str.at var15 125)))
(assert (= "V" (str.at var23 741)))
(assert (= "t" (str.at var6 509)))
(assert (= "n" (str.at var44 26)))
(assert (= "A" (str.at var57 311)))
(assert (= "e" (str.at var1 704)))
(assert (= "F" (str.at var58 14)))
(assert (= "&" (str.at var2 858)))
(assert (= "0" (str.at var26 582)))
(assert (= "R" (str.at var14 638)))
(assert (= "w" (str.at var37 772)))
(assert (= "G" (str.at var10 513)))
(assert (= "#" (str.at var0 871)))
(assert (= "D" (str.at var23 223)))
(assert (= "Z" (str.at var17 836)))
(assert (= "O" (str.at var0 504)))
(assert (= "e" (str.at var10 831)))
(assert (= "N" (str.at var10 32)))
(assert (= "_" (str.at var26 572)))
(assert (= "*" (str.at var27 322)))
(assert (= "i" (str.at var1 344)))
(assert (= "E" (str.at var54 63)))
(assert (= "O" (str.at var7 166)))
(assert (= "Z" (str.at var3 939)))
(assert (= "q" (str.at var21 499)))
(assert (= "R" (str.at var58 891)))
(assert (= "A" (str.at var4 102)))
(assert (= "J" (str.at var2 979)))
(assert (= "1" (str.at var18 49)))
(assert (= "G" (str.at var18 329)))
(assert (= "+" (str.at var36 348)))
(assert (= "M" (str.at var58 623)))
(assert (= "6" (str.at var59 249)))
(assert (= "!" (str.at var59 755)))
(assert (= "*" (str.at var47 920)))
(assert (= "^" (str.at var50 558)))
(assert (= "|" (str.at var23 62)))
(assert (= "0" (str.at var19 580)))
(assert (= "c" (str.at var58 312)))
(assert (= "`" (str.at var10 887)))
(assert (= "{" (str.at var30 159)))
(assert (= "o" (str.at var18 739)))
(assert (= "5" (str.at var44 945)))
(assert (= "o" (str.at var29 102)))
(assert (= "n" (str.at var40 515)))
(assert (= "a" (str.at var32 388)))
(assert (= "2" (str.at var45 947)))
(assert (= "T" (str.at var12 67)))
(assert (= "!" (str.at var1 950)))
(assert (= "&" (str.at var9 772)))
(assert (= "H" (str.at var55 14)))
(assert (= "U" (str.at var4 1000)))
(assert (= "@" (str.at var42 57)))
(assert (= "=" (str.at var3 571)))
(assert (= "L" (str.at var33 992)))
(assert (= "h" (str.at var13 704)))
(assert (= "f" (str.at var5 927)))
(assert (= "!" (str.at var31 132)))
(assert (= "r" (str.at var58 686)))
(assert (= "t" (str.at var11 901)))
(assert (= "h" (str.at var47 955)))
(assert (= "T" (str.at var47 763)))
(assert (= "2" (str.at var42 192)))
(assert (= "}" (str.at var0 241)))
(assert (= "d" (str.at var30 538)))
(assert (= "'" (str.at var40 243)))
(assert (= "H" (str.at var44 603)))
(assert (= ";" (str.at var33 182)))
(assert (= "8" (str.at var25 697)))
(assert (= "D" (str.at var19 3)))
(assert (= "," (str.at var36 102)))
(assert (= "f" (str.at var52 355)))
(assert (= "\\" (str.at var7 600)))
(assert (= "~" (str.at var39 799)))
(assert (= "C" (str.at var0 867)))
(assert (= "," (str.at var0 659)))
(assert (= "B" (str.at var36 833)))
(assert (= "4" (str.at var38 513)))
(assert (= "L" (str.at var53 225)))
(assert (= "Z" (str.at var42 682)))
(assert (= "'" (str.at var55 113)))
(assert (= "=" (str.at var26 620)))
(assert (= "D" (str.at var34 872)))
(assert (= "J" (str.at var6 918)))
(assert (= ":" (str.at var10 65)))
(assert (= "2" (str.at var51 143)))
(assert (= "4" (str.at var36 683)))
(assert (= "b" (str.at var49 349)))
(assert (= "^" (str.at var16 840)))
(assert (= "k" (str.at var20 714)))
(assert (= "Y" (str.at var53 441)))
(assert (= "5" (str.at var54 507)))
(assert (= "H" (str.at var2 969)))
(assert (= "P" (str.at var9 88)))
(assert (= "F" (str.at var44 736)))
(assert (= "X" (str.at var10 212)))
(assert (= "n" (str.at var14 779)))
(assert (= "O" (str.at var43 69)))
(assert (= "W" (str.at var0 585)))
(assert (= "u" (str.at var17 206)))
(assert (= "8" (str.at var25 307)))
(assert (= "J" (str.at var14 561)))
(assert (= "+" (str.at var37 963)))
(assert (= "?" (str.at var33 269)))
(assert (= "L" (str.at var17 188)))
(assert (= "<" (str.at var0 301)))
(assert (= "V" (str.at var24 56)))
(assert (= "d" (str.at var14 527)))
(assert (= "B" (str.at var26 209)))
(assert (= "v" (str.at var36 821)))
(assert (= "K" (str.at var8 213)))
(assert (= "A" (str.at var60 496)))
(assert (= "R" (str.at var15 25)))
(assert (= "m" (str.at var40 74)))
(assert (= "K" (str.at var20 798)))
(assert (= "_" (str.at var26 766)))
(assert (= "," (str.at var50 795)))
(assert (= "&" (str.at var1 626)))
(assert (= "T" (str.at var18 350)))
(assert (= "s" (str.at var5 735)))
(assert (= "S" (str.at var49 376)))
(assert (= ":" (str.at var56 363)))
(assert (= "#" (str.at var55 501)))
(assert (= "X" (str.at var58 24)))
(assert (= "|" (str.at var46 673)))
(assert (= "O" (str.at var59 568)))
(assert (= "\\" (str.at var36 774)))
(assert (= "-" (str.at var60 983)))
(assert (= "G" (str.at var32 19)))
(assert (= "|" (str.at var52 701)))
(assert (= "_" (str.at var30 813)))
(assert (= "e" (str.at var54 778)))
(assert (= "\\" (str.at var42 613)))
(assert (= "Y" (str.at var51 451)))
(assert (= "{" (str.at var58 858)))
(assert (= "l" (str.at var47 2)))
(assert (= "K" (str.at var50 327)))
(assert (= "e" (str.at var2 922)))
(assert (= "`" (str.at var34 184)))
(assert (= "F" (str.at var9 380)))
(assert (= "b" (str.at var56 651)))
(assert (= "\\" (str.at var27 827)))
(assert (= "7" (str.at var41 3)))
(assert (= "l" (str.at var26 925)))
(assert (= "V" (str.at var12 223)))
(assert (= "q" (str.at var5 657)))
(assert (= "G" (str.at var58 162)))
(assert (= "i" (str.at var3 681)))
(assert (= "q" (str.at var54 86)))
(assert (= "o" (str.at var57 167)))
(assert (= "]" (str.at var50 761)))
(assert (= "l" (str.at var14 220)))
(assert (= "|" (str.at var36 266)))
(assert (= "7" (str.at var8 308)))
(assert (= "y" (str.at var13 262)))
(assert (= "%" (str.at var27 949)))
(assert (= """" (str.at var57 663)))
(assert (= "V" (str.at var3 845)))
(assert (= "l" (str.at var12 160)))
(assert (= "(" (str.at var42 569)))
(assert (= "k" (str.at var45 469)))
(assert (= "(" (str.at var28 220)))
(assert (= "J" (str.at var38 265)))
(assert (= "i" (str.at var42 2)))
(assert (= "e" (str.at var18 452)))
(assert (= "K" (str.at var49 499)))
(assert (= "X" (str.at var7 890)))
(assert (= "w" (str.at var38 84)))
(assert (= "'" (str.at var28 597)))
(assert (= "L" (str.at var16 221)))
(assert (= "(" (str.at var20 265)))
(assert (= "0" (str.at var43 782)))
(assert (= """" (str.at var7 498)))
(assert (= "p" (str.at var46 310)))
(assert (= "W" (str.at var9 815)))
(assert (= "x" (str.at var39 40)))
(assert (= "/" (str.at var16 16)))
(assert (= "n" (str.at var2 124)))
(assert (= "|" (str.at var49 395)))
(assert (= "z" (str.at var12 338)))
(assert (= "]" (str.at var39 795)))
(assert (= "r" (str.at var25 818)))
(assert (= "4" (str.at var5 973)))
(assert (= "G" (str.at var8 313)))
(assert (= "`" (str.at var6 686)))
(assert (= "7" (str.at var57 911)))
(assert (= "<" (str.at var36 153)))
(assert (= "#" (str.at var32 241)))
(assert (= "n" (str.at var18 760)))
(assert (= "W" (str.at var9 163)))
(assert (= "&" (str.at var21 859)))
(assert (= "4" (str.at var32 42)))
(assert (= "~" (str.at var5 321)))
(assert (= "j" (str.at var30 886)))
(assert (= "@" (str.at var44 714)))
(assert (= "0" (str.at var60 750)))
(assert (= "N" (str.at var51 757)))
(assert (= "1" (str.at var41 80)))
(assert (= ";" (str.at var26 343)))
(assert (= "g" (str.at var47 56)))
(assert (= ">" (str.at var60 192)))
(assert (= "C" (str.at var9 294)))
(assert (= "j" (str.at var21 244)))
(assert (= "n" (str.at var47 950)))
(assert (= "F" (str.at var20 850)))
(assert (= "R" (str.at var7 383)))
(assert (= "G" (str.at var54 537)))
(assert (= "z" (str.at var7 58)))
(assert (= "e" (str.at var49 295)))
(assert (= "Z" (str.at var12 495)))
(assert (= "=" (str.at var32 544)))
(assert (= "S" (str.at var34 26)))
(assert (= "j" (str.at var17 550)))
(assert (= "u" (str.at var37 195)))
(assert (= "6" (str.at var40 333)))
(assert (= "y" (str.at var12 536)))
(assert (= "G" (str.at var41 402)))
(assert (= "M" (str.at var12 914)))
(assert (= "P" (str.at var37 120)))
(assert (= "#" (str.at var50 90)))
(assert (= ":" (str.at var60 37)))
(assert (= "k" (str.at var20 435)))
(assert (= ")" (str.at var2 892)))
(assert (= "i" (str.at var0 913)))
(assert (= "5" (str.at var47 735)))
(assert (= "*" (str.at var59 626)))
(assert (= "t" (str.at var32 222)))
(assert (= "v" (str.at var42 270)))
(assert (= "!" (str.at var6 373)))
(assert (= "F" (str.at var23 88)))
(assert (= "z" (str.at var51 716)))
(assert (= "h" (str.at var0 862)))
(assert (= "+" (str.at var13 364)))
(assert (= "l" (str.at var27 489)))
(assert (= "S" (str.at var23 308)))
(assert (= "p" (str.at var51 652)))
(assert (= "`" (str.at var40 907)))
(assert (= ":" (str.at var34 390)))
(assert (= "Y" (str.at var1 549)))
(assert (= "C" (str.at var52 586)))
(assert (= "h" (str.at var40 266)))
(assert (= "?" (str.at var23 798)))
(assert (= "+" (str.at var11 31)))
(assert (= "5" (str.at var45 845)))
(assert (= "q" (str.at var40 789)))
(assert (= "p" (str.at var47 207)))
(assert (= "." (str.at var25 807)))
(assert (= "?" (str.at var54 938)))
(assert (= "4" (str.at var27 187)))
(assert (= "M" (str.at var8 629)))
(assert (= ")" (str.at var43 541)))
(assert (= "d" (str.at var1 322)))
(assert (= "A" (str.at var60 539)))
(assert (= "c" (str.at var54 550)))
(assert (= "K" (str.at var10 82)))
(assert (= "f" (str.at var41 396)))
(assert (= "b" (str.at var5 708)))
(assert (= "!" (str.at var52 442)))
(assert (= "$" (str.at var57 422)))
(assert (= "*" (str.at var28 331)))
(assert (= "F" (str.at var0 707)))
(assert (= "f" (str.at var60 547)))
(assert (= ")" (str.at var33 960)))
(assert (= "a" (str.at var36 397)))
(assert (= "g" (str.at var52 888)))
(assert (= "r" (str.at var33 315)))
(assert (= "E" (str.at var38 78)))
(assert (= ";" (str.at var54 860)))
(assert (= "O" (str.at var33 625)))
(assert (= "}" (str.at var42 374)))
(assert (= "&" (str.at var36 293)))
(assert (= "H" (str.at var45 662)))
(assert (= ")" (str.at var51 460)))
(assert (= "r" (str.at var32 89)))
(assert (= "0" (str.at var48 298)))
(assert (= "G" (str.at var7 574)))
(assert (= "J" (str.at var48 224)))
(assert (= "3" (str.at var56 947)))
(assert (= ";" (str.at var4 995)))
(assert (= "K" (str.at var42 69)))
(assert (= "{" (str.at var39 986)))
(assert (= "s" (str.at var30 365)))
(assert (= "%" (str.at var34 903)))
(assert (= "Y" (str.at var59 508)))
(assert (= ":" (str.at var4 699)))
(assert (= "g" (str.at var39 509)))
(assert (= "," (str.at var6 74)))
(assert (= "i" (str.at var43 352)))
(assert (= "d" (str.at var26 82)))
(assert (= "1" (str.at var19 243)))
(assert (= "b" (str.at var3 163)))
(assert (= ";" (str.at var60 784)))
(assert (= "2" (str.at var10 369)))
(assert (= "f" (str.at var17 60)))
(assert (= "r" (str.at var43 118)))
(assert (= "t" (str.at var57 223)))
(assert (= "S" (str.at var38 869)))
(assert (= "0" (str.at var6 436)))
(assert (= ")" (str.at var43 518)))
(check-sat)